	Costo	Iter.	Tiempo
1	533,68	109	27,531
2	865,16	126	76,562
3	848,45	203	300,782
4	1099,02	85	302,578
5	1431,46	47	303,265
6	560,96	120	44,5
7	950,36	48	302,641
8	898,87	46	303,202
9	1285,02	3	339,14
10	1555,82	2	432,219
11	1236,79	174	301,155
12	842,46	139	127,937
13	1618,86	179	301,499
14	884,89	138	129,452
